c Random 8-CNF over 30 variables and 210 clauses
c Generated with `cnfgen`
c (C) 2012-2016 Massimo Lauria <lauria.massimo@gmail.com>
c https://massimolauria.github.io/cnfgen
c
c COMMAND LINE: cnfgen --output tmp-8-30-210.dimacs --output-format dimacs randkcnf 8 30 210
c
c sdimacs generated by gen-sdimacs
c
p cnf 30 210
r 0.5 1 2 3 4 5 6 7 8 9 10 11 12 13 14 15 0
e  16 17 18 19 20 21 22 23 24 25 26 27 28 29 30 0
1 10 11 -12 14 -19 26 28 0
4 14 -15 -19 20 -23 -26 -29 0
4 -10 -12 -18 22 24 25 -29 0
2 3 12 -13 -14 -21 25 -29 0
-8 13 15 -17 -24 25 -29 30 0
3 6 -7 -8 10 -16 -17 22 0
4 6 8 14 -15 19 23 -28 0
-2 9 15 -16 -18 -23 28 30 0
2 4 7 19 22 23 -25 -28 0
-1 4 -10 15 16 21 -29 -30 0
7 8 -12 13 18 -25 27 28 0
-5 10 -12 15 17 -22 -24 25 0
3 4 -10 14 16 19 20 -24 0
4 10 11 12 16 -17 -19 -28 0
-1 -4 -10 12 17 -19 22 29 0
1 11 14 19 20 28 -29 -30 0
1 -4 8 11 -15 16 25 27 0
2 -3 4 20 26 -28 -29 -30 0
-1 -14 17 20 -23 -25 -26 -27 0
-8 9 -12 18 -19 -23 24 -28 0
4 6 -9 10 -19 -23 27 29 0
5 7 9 -14 -16 -23 26 29 0
-2 -5 11 14 17 -25 27 30 0
3 6 9 17 -21 -26 27 28 0
2 -3 -10 -17 -19 -20 -24 25 0
2 3 5 10 11 13 -14 16 0
2 4 -6 8 17 -21 -26 -30 0
6 -7 -9 12 17 19 -23 26 0
-4 -6 -11 13 14 16 23 25 0
-1 -4 -8 -17 -20 21 25 -26 0
-2 6 11 17 -20 21 24 -25 0
1 -6 9 -13 21 -24 28 29 0
6 -13 15 16 20 -24 25 -28 0
-1 3 4 6 -7 13 -27 30 0
3 5 7 -14 23 -25 -26 28 0
-3 9 -11 -13 15 17 19 28 0
-2 5 -7 12 20 25 27 -30 0
-5 -10 13 -16 -18 19 28 -29 0
8 -11 -12 14 18 23 -24 27 0
3 -6 7 8 9 -10 26 -28 0
3 4 -5 12 13 -25 27 30 0
7 -15 -16 18 22 -24 -28 29 0
-3 -14 -17 20 21 25 27 29 0
-1 -4 -6 -9 11 -16 -26 29 0
4 -5 9 12 -21 -23 -25 -26 0
-1 -4 5 11 13 -15 18 20 0
2 -6 -8 9 -10 17 27 -29 0
-4 -10 -13 14 -15 -21 -22 29 0
-1 -2 -4 11 14 -20 23 -27 0
1 6 8 -14 15 -19 -22 28 0
1 -4 6 -12 19 23 25 29 0
4 -8 12 -18 21 -22 23 -30 0
-7 -13 -14 -19 -20 -24 25 -30 0
1 6 8 10 -13 14 26 -29 0
-2 -6 10 17 19 21 -26 -29 0
6 -7 12 14 16 21 26 -30 0
3 6 7 -9 -11 13 -17 18 0
-6 -9 -13 -16 20 -23 -28 30 0
-6 -9 10 -12 13 14 -15 21 0
3 12 -14 22 -25 28 29 -30 0
3 5 6 7 -14 17 -18 -20 0
7 -10 -11 -18 20 27 -28 -29 0
4 -5 6 -8 -9 17 -20 26 0
1 -5 -6 -9 10 -13 25 30 0
-5 13 -14 -15 17 19 -23 29 0
1 -6 -7 -12 -15 -18 -22 -24 0
-6 7 -8 12 -16 23 26 -28 0
6 -7 -8 -9 10 -16 24 -30 0
4 6 -10 -11 -13 15 -24 -26 0
-4 6 -11 -12 -16 21 -24 25 0
3 -6 -8 -10 -13 -21 24 -29 0
-2 4 8 9 14 -15 19 29 0
-1 3 -5 -7 12 -16 20 -28 0
-2 -3 7 -11 -16 24 26 -27 0
2 -7 8 -9 18 -25 -27 30 0
2 -3 11 14 20 26 -27 -29 0
1 4 -6 7 9 10 -13 -24 0
-1 2 3 -4 -9 -24 25 -27 0
-3 5 -7 -9 12 19 26 30 0
-12 -13 -17 -25 26 27 28 -30 0
1 -3 6 -7 13 18 -19 28 0
1 6 12 -15 -18 -23 27 30 0
9 -11 -12 -13 14 -17 21 -28 0
-1 -5 -6 -11 12 14 19 -25 0
2 -4 -6 7 14 -21 28 30 0
-8 -13 -14 16 -18 -20 -22 25 0
-7 8 -9 14 15 -17 21 -26 0
-1 3 -5 -10 16 17 21 29 0
-1 -5 11 14 19 20 -23 27 0
1 -2 -4 6 13 -15 23 -26 0
1 3 -16 17 18 -25 26 30 0
4 8 -9 -15 16 -21 26 27 0
-1 4 -5 -14 -20 25 -28 29 0
-3 4 -8 -12 13 24 -25 26 0
2 -6 8 -13 19 -21 24 27 0
3 5 -6 14 18 -21 -24 -26 0
2 7 8 9 -12 13 19 -20 0
3 5 -7 12 14 19 -20 29 0
4 6 -7 -9 -14 25 28 29 0
1 -2 7 14 16 18 -20 30 0
-4 -5 -11 17 -22 -23 -24 27 0
-2 -5 -8 21 23 -24 26 28 0
-2 -4 10 13 -21 -22 -26 -28 0
-2 -3 -10 -16 18 -20 26 -27 0
-2 -12 -20 -22 -26 -27 29 -30 0
-4 -5 7 -10 -15 -17 -22 -27 0
-1 -3 -6 -11 -14 -17 -27 -28 0
-2 4 -9 -10 15 19 23 -24 0
-1 -2 -4 18 19 -20 -23 30 0
2 -4 -9 -17 19 23 28 -29 0
-1 -2 -4 -5 9 18 21 24 0
-2 -9 -11 -17 -19 -26 28 -29 0
1 -4 7 9 -12 -13 14 15 0
2 -4 7 -11 -15 19 -21 -22 0
2 3 -4 -8 -13 -14 -24 25 0
-3 5 11 16 -17 -18 23 -30 0
1 -9 -10 15 -16 19 23 28 0
6 8 9 -11 14 16 24 -29 0
-1 4 9 13 15 -21 -24 -28 0
3 6 9 -11 -13 -14 18 -29 0
-3 -6 16 -17 -19 -22 26 29 0
-2 -5 7 9 -11 -14 22 -24 0
-4 5 14 20 22 -23 28 29 0
4 -6 -8 -14 16 -17 -19 -24 0
4 8 12 -17 -18 19 22 30 0
9 -12 -14 17 -26 -27 -28 -30 0
-3 -6 -12 19 -22 24 -25 30 0
2 6 13 14 -17 22 25 -27 0
-2 -9 -10 -11 -18 23 28 29 0
-6 -8 -11 12 -14 -22 24 -27 0
-1 -2 6 8 12 -18 24 -25 0
2 14 -20 22 23 -26 27 29 0
1 2 -3 -9 16 -21 -29 30 0
6 -9 11 -14 -17 -20 26 -28 0
2 -3 -5 -14 -18 -21 -24 26 0
1 7 10 19 -20 25 27 -28 0
-1 -2 4 -8 14 -18 -23 -24 0
1 3 5 13 -17 18 21 -23 0
-2 12 -19 -20 -23 24 26 29 0
-3 10 15 -16 -17 -24 26 29 0
2 -4 7 12 17 20 -24 26 0
-10 -11 -13 -14 15 26 -28 30 0
2 4 5 7 8 10 12 13 0
-3 -5 7 -10 -17 20 -24 -29 0
-5 14 -17 -21 22 -23 27 -29 0
-1 3 7 8 -9 23 -27 28 0
3 -6 -7 13 17 21 22 23 0
-3 -10 12 16 -17 21 22 24 0
3 4 7 9 12 22 -28 29 0
-8 -9 -11 13 -15 -22 25 -29 0
-1 3 -4 12 -16 -17 -21 -28 0
-1 2 -3 4 8 -10 -19 23 0
-7 -12 -15 -18 -20 24 28 -29 0
-3 4 -5 12 21 -22 25 30 0
-10 -12 -16 23 24 -28 -29 30 0
4 6 -7 8 20 23 25 -27 0
-2 -8 14 -15 19 22 -26 27 0
-3 -5 13 -14 -17 -25 -28 -30 0
-7 -13 -14 -16 -19 23 -25 28 0
-1 -6 -8 10 -22 -23 -24 -29 0
-7 -11 13 -17 -20 -26 27 29 0
3 -7 -9 13 14 17 19 -26 0
-2 -7 12 20 -22 24 25 -28 0
-3 6 -12 13 15 -18 -19 -22 0
5 -6 -7 17 -24 -25 26 29 0
-4 5 8 9 16 20 -21 27 0
2 8 11 13 -14 -19 22 -26 0
-1 -2 -3 6 -7 -15 -18 -29 0
-4 6 8 10 -12 -13 -14 -27 0
-4 10 -17 22 24 25 27 29 0
2 11 12 14 19 -22 -24 -26 0
3 13 14 -16 17 20 -28 -29 0
-2 10 17 21 22 23 -24 28 0
5 6 -11 16 -20 21 -23 -30 0
-2 8 12 -14 -19 21 -29 30 0
8 -9 -12 -17 -22 24 -26 29 0
-1 5 -14 -16 -22 -27 -28 30 0
-1 -7 12 17 -19 -25 27 -29 0
2 5 -6 -9 17 -18 21 27 0
4 5 7 11 -19 20 25 -27 0
-3 5 12 13 -17 18 -20 21 0
1 -10 13 15 -18 19 -21 27 0
2 -8 10 14 15 21 -25 -29 0
1 2 -11 -18 21 -24 -25 -30 0
4 6 8 -10 12 -20 -28 29 0
-3 4 14 -17 -20 22 23 25 0
-3 5 -8 -10 15 -23 26 30 0
1 -4 -5 9 -12 14 -17 23 0
-5 -7 -9 14 18 -21 22 -30 0
1 13 14 -19 -22 -23 24 28 0
2 3 7 10 -14 -16 20 -28 0
-2 -5 10 -13 16 18 24 27 0
-8 -10 14 -18 23 24 -27 28 0
-1 -2 5 -8 9 14 -22 23 0
-5 -11 -12 13 14 -19 -29 -30 0
-4 -5 8 -10 21 22 25 26 0
-2 3 5 -7 -11 15 22 23 0
-3 -6 9 -19 20 22 26 29 0
-1 3 5 8 14 18 -28 30 0
5 -6 7 -8 -15 16 -21 -22 0
-1 -2 -3 5 -7 19 -20 -26 0
4 -6 -7 9 -14 -21 -25 29 0
-7 -10 -11 12 16 -22 -29 30 0
3 -4 7 -11 24 26 -27 30 0
-3 -8 14 16 19 21 -25 27 0
3 6 -12 17 -19 -21 -22 -23 0
-6 14 15 -16 -18 -19 24 -28 0
-2 -3 5 -18 -20 -24 -27 -29 0
-3 -4 11 -13 20 25 29 30 0
-3 5 -12 -16 -17 20 23 -27 0
